 VARIABLES = X,Y,Z,DU1,DU2,DU3,U1,U2,U3,S11,S22,S33,S12,S13,S23
 ZONE, T="0.1000D+01" F=FEPOINT, I=    8 J=    1 ET=BRICK
   0.0000000000E+00   0.0000000000E+00   0.0000000000E+00   0.0000000000E+00   0.0000000000E+00   0.0000000000E+00   0.0000000000E+00   0.0000000000E+00   0.0000000000E+00   0.0000000000E+00   0.0000000000E+00   0.0000000000E+00   0.0000000000E+00   0.0000000000E+00   0.0000000000E+00
   0.1100000000E+01   0.0000000000E+00   0.8695939345E-16   0.1000000000E+00   0.0000000000E+00   0.8695939345E-16   0.0000000000E+00   0.0000000000E+00   0.0000000000E+00   0.0000000000E+00   0.0000000000E+00   0.0000000000E+00   0.0000000000E+00   0.0000000000E+00   0.0000000000E+00
   0.1100000000E+01   0.9500209818E+00   0.1092604558E-15   0.1000000000E+00  -0.4997901820E-01   0.1092604558E-15   0.0000000000E+00   0.0000000000E+00   0.0000000000E+00   0.0000000000E+00   0.0000000000E+00   0.0000000000E+00   0.0000000000E+00   0.0000000000E+00   0.0000000000E+00
   0.0000000000E+00   0.9500209818E+00   0.7173694332E-16   0.0000000000E+00  -0.4997901820E-01   0.7173694332E-16   0.0000000000E+00   0.0000000000E+00   0.0000000000E+00   0.0000000000E+00   0.0000000000E+00   0.0000000000E+00   0.0000000000E+00   0.0000000000E+00   0.0000000000E+00
   0.0000000000E+00   0.0000000000E+00   0.9500209818E+00   0.0000000000E+00   0.0000000000E+00  -0.4997901820E-01   0.0000000000E+00   0.0000000000E+00   0.0000000000E+00   0.0000000000E+00   0.0000000000E+00   0.0000000000E+00   0.0000000000E+00   0.0000000000E+00   0.0000000000E+00
   0.1100000000E+01   0.0000000000E+00   0.9500209818E+00   0.1000000000E+00   0.0000000000E+00  -0.4997901820E-01   0.0000000000E+00   0.0000000000E+00   0.0000000000E+00   0.0000000000E+00   0.0000000000E+00   0.0000000000E+00   0.0000000000E+00   0.0000000000E+00   0.0000000000E+00
   0.1100000000E+01   0.9500209818E+00   0.9500209818E+00   0.1000000000E+00  -0.4997901820E-01  -0.4997901820E-01   0.0000000000E+00   0.0000000000E+00   0.0000000000E+00   0.0000000000E+00   0.0000000000E+00   0.0000000000E+00   0.0000000000E+00   0.0000000000E+00   0.0000000000E+00
   0.0000000000E+00   0.9500209818E+00   0.9500209818E+00   0.0000000000E+00  -0.4997901820E-01  -0.4997901820E-01   0.0000000000E+00   0.0000000000E+00   0.0000000000E+00   0.0000000000E+00   0.0000000000E+00   0.0000000000E+00   0.0000000000E+00   0.0000000000E+00   0.0000000000E+00
     1     2     3     4     5     6     7     8
 VARIABLES = X,Y,Z,DU1,DU2,DU3,U1,U2,U3,S11,S22,S33,S12,S13,S23
 ZONE, T="0.2000D+01" F=FEPOINT, I=    8 J=    1 ET=BRICK
   0.0000000000E+00   0.0000000000E+00   0.0000000000E+00   0.0000000000E+00   0.0000000000E+00   0.0000000000E+00   0.0000000000E+00   0.0000000000E+00   0.0000000000E+00   0.0000000000E+00   0.0000000000E+00   0.0000000000E+00   0.0000000000E+00   0.0000000000E+00   0.0000000000E+00
   0.1080000000E+01   0.0000000000E+00   0.1923983139E-16  -0.2000000000E-01   0.0000000000E+00  -0.6771956206E-16   0.1000000000E+00   0.0000000000E+00   0.8695939345E-16   0.0000000000E+00   0.0000000000E+00   0.0000000000E+00   0.0000000000E+00   0.0000000000E+00   0.0000000000E+00
   0.1080000000E+01   0.9600205187E+00   0.7049009843E-17  -0.2000000000E-01   0.9999536925E-02  -0.1022114460E-15   0.1000000000E+00  -0.4997901820E-01   0.1092604558E-15   0.0000000000E+00   0.0000000000E+00   0.0000000000E+00   0.0000000000E+00   0.0000000000E+00   0.0000000000E+00
   0.0000000000E+00   0.9600205187E+00   0.1669877585E-16   0.0000000000E+00   0.9999536925E-02  -0.5503816747E-16   0.0000000000E+00  -0.4997901820E-01   0.7173694332E-16   0.0000000000E+00   0.0000000000E+00   0.0000000000E+00   0.0000000000E+00   0.0000000000E+00   0.0000000000E+00
   0.0000000000E+00   0.0000000000E+00   0.9600205187E+00   0.0000000000E+00   0.0000000000E+00   0.9999536925E-02   0.0000000000E+00   0.0000000000E+00  -0.4997901820E-01   0.0000000000E+00   0.0000000000E+00   0.0000000000E+00   0.0000000000E+00   0.0000000000E+00   0.0000000000E+00
   0.1080000000E+01   0.0000000000E+00   0.9600205187E+00  -0.2000000000E-01   0.0000000000E+00   0.9999536925E-02   0.1000000000E+00   0.0000000000E+00  -0.4997901820E-01   0.0000000000E+00   0.0000000000E+00   0.0000000000E+00   0.0000000000E+00   0.0000000000E+00   0.0000000000E+00
   0.1080000000E+01   0.9600205187E+00   0.9600205187E+00  -0.2000000000E-01   0.9999536925E-02   0.9999536925E-02   0.1000000000E+00  -0.4997901820E-01  -0.4997901820E-01   0.0000000000E+00   0.0000000000E+00   0.0000000000E+00   0.0000000000E+00   0.0000000000E+00   0.0000000000E+00
   0.0000000000E+00   0.9600205187E+00   0.9600205187E+00   0.0000000000E+00   0.9999536925E-02   0.9999536925E-02   0.0000000000E+00  -0.4997901820E-01  -0.4997901820E-01   0.0000000000E+00   0.0000000000E+00   0.0000000000E+00   0.0000000000E+00   0.0000000000E+00   0.0000000000E+00
     1     2     3     4     5     6     7     8
 VARIABLES = X,Y,Z,DU1,DU2,DU3,U1,U2,U3,S11,S22,S33,S12,S13,S23
 ZONE, T="0.3000D+01" F=FEPOINT, I=    8 J=    1 ET=BRICK
   0.0000000000E+00   0.0000000000E+00   0.0000000000E+00   0.0000000000E+00   0.0000000000E+00   0.0000000000E+00   0.0000000000E+00   0.0000000000E+00   0.0000000000E+00   0.0000000000E+00   0.0000000000E+00   0.0000000000E+00   0.0000000000E+00   0.0000000000E+00   0.0000000000E+00
   0.1050000000E+01   0.0000000000E+00  -0.5553320618E-17  -0.3000000000E-01   0.0000000000E+00  -0.2479315201E-16   0.8000000000E-01   0.0000000000E+00   0.1923983139E-16   0.0000000000E+00   0.0000000000E+00   0.0000000000E+00   0.0000000000E+00   0.0000000000E+00   0.0000000000E+00
   0.1050000000E+01   0.9750195765E+00   0.5226912735E-17  -0.3000000000E-01   0.1499905775E-01  -0.1822097108E-17   0.8000000000E-01  -0.3997948128E-01   0.7049009843E-17   0.0000000000E+00   0.0000000000E+00   0.0000000000E+00   0.0000000000E+00   0.0000000000E+00   0.0000000000E+00
   0.0000000000E+00   0.9750195765E+00  -0.1666269348E-17   0.0000000000E+00   0.1499905775E-01  -0.1836504519E-16   0.0000000000E+00  -0.3997948128E-01   0.1669877585E-16   0.0000000000E+00   0.0000000000E+00   0.0000000000E+00   0.0000000000E+00   0.0000000000E+00   0.0000000000E+00
   0.0000000000E+00   0.0000000000E+00   0.9750195765E+00   0.0000000000E+00   0.0000000000E+00   0.1499905775E-01   0.0000000000E+00   0.0000000000E+00  -0.3997948128E-01   0.0000000000E+00   0.0000000000E+00   0.0000000000E+00   0.0000000000E+00   0.0000000000E+00   0.0000000000E+00
   0.1050000000E+01   0.0000000000E+00   0.9750195765E+00  -0.3000000000E-01   0.0000000000E+00   0.1499905775E-01   0.8000000000E-01   0.0000000000E+00  -0.3997948128E-01   0.0000000000E+00   0.0000000000E+00   0.0000000000E+00   0.0000000000E+00   0.0000000000E+00   0.0000000000E+00
   0.1050000000E+01   0.9750195765E+00   0.9750195765E+00  -0.3000000000E-01   0.1499905775E-01   0.1499905775E-01   0.8000000000E-01  -0.3997948128E-01  -0.3997948128E-01   0.0000000000E+00   0.0000000000E+00   0.0000000000E+00   0.0000000000E+00   0.0000000000E+00   0.0000000000E+00
   0.0000000000E+00   0.9750195765E+00   0.9750195765E+00   0.0000000000E+00   0.1499905775E-01   0.1499905775E-01   0.0000000000E+00  -0.3997948128E-01  -0.3997948128E-01   0.0000000000E+00   0.0000000000E+00   0.0000000000E+00   0.0000000000E+00   0.0000000000E+00   0.0000000000E+00
     1     2     3     4     5     6     7     8
 VARIABLES = X,Y,Z,DU1,DU2,DU3,U1,U2,U3,S11,S22,S33,S12,S13,S23
 ZONE, T="0.4000D+01" F=FEPOINT, I=    8 J=    1 ET=BRICK
   0.0000000000E+00   0.0000000000E+00   0.0000000000E+00   0.0000000000E+00   0.0000000000E+00   0.0000000000E+00   0.0000000000E+00   0.0000000000E+00   0.0000000000E+00   0.0000000000E+00   0.0000000000E+00   0.0000000000E+00   0.0000000000E+00   0.0000000000E+00   0.0000000000E+00
   0.1030000000E+01   0.0000000000E+00  -0.1044586141E-17  -0.2000000000E-01   0.0000000000E+00   0.4508734477E-17   0.5000000000E-01   0.0000000000E+00  -0.5553320618E-17   0.0000000000E+00   0.0000000000E+00   0.0000000000E+00   0.0000000000E+00   0.0000000000E+00   0.0000000000E+00
   0.1030000000E+01   0.9850186013E+00  -0.1427047412E-17  -0.2000000000E-01   0.9999024812E-02  -0.6653960147E-17   0.5000000000E-01  -0.2498042353E-01   0.5226912735E-17   0.0000000000E+00   0.0000000000E+00   0.0000000000E+00   0.0000000000E+00   0.0000000000E+00   0.0000000000E+00
   0.0000000000E+00   0.9850186013E+00   0.9285041816E-18   0.0000000000E+00   0.9999024812E-02   0.2594773529E-17   0.0000000000E+00  -0.2498042353E-01  -0.1666269348E-17   0.0000000000E+00   0.0000000000E+00   0.0000000000E+00   0.0000000000E+00   0.0000000000E+00   0.0000000000E+00
   0.0000000000E+00   0.0000000000E+00   0.9850186013E+00   0.0000000000E+00   0.0000000000E+00   0.9999024812E-02   0.0000000000E+00   0.0000000000E+00  -0.2498042353E-01   0.0000000000E+00   0.0000000000E+00   0.0000000000E+00   0.0000000000E+00   0.0000000000E+00   0.0000000000E+00
   0.1030000000E+01   0.0000000000E+00   0.9850186013E+00  -0.2000000000E-01   0.0000000000E+00   0.9999024812E-02   0.5000000000E-01   0.0000000000E+00  -0.2498042353E-01   0.0000000000E+00   0.0000000000E+00   0.0000000000E+00   0.0000000000E+00   0.0000000000E+00   0.0000000000E+00
   0.1030000000E+01   0.9850186013E+00   0.9850186013E+00  -0.2000000000E-01   0.9999024812E-02   0.9999024812E-02   0.5000000000E-01  -0.2498042353E-01  -0.2498042353E-01   0.0000000000E+00   0.0000000000E+00   0.0000000000E+00   0.0000000000E+00   0.0000000000E+00   0.0000000000E+00
   0.0000000000E+00   0.9850186013E+00   0.9850186013E+00   0.0000000000E+00   0.9999024812E-02   0.9999024812E-02   0.0000000000E+00  -0.2498042353E-01  -0.2498042353E-01   0.0000000000E+00   0.0000000000E+00   0.0000000000E+00   0.0000000000E+00   0.0000000000E+00   0.0000000000E+00
     1     2     3     4     5     6     7     8
 VARIABLES = X,Y,Z,DU1,DU2,DU3,U1,U2,U3,S11,S22,S33,S12,S13,S23
 ZONE, T="0.5000D+01" F=FEPOINT, I=    8 J=    1 ET=BRICK
   0.0000000000E+00   0.0000000000E+00   0.0000000000E+00   0.0000000000E+00   0.0000000000E+00   0.0000000000E+00   0.0000000000E+00   0.0000000000E+00   0.0000000000E+00   0.0000000000E+00   0.0000000000E+00   0.0000000000E+00   0.0000000000E+00   0.0000000000E+00   0.0000000000E+00
   0.1010000000E+01   0.0000000000E+00   0.3267050577E-18  -0.2000000000E-01   0.0000000000E+00   0.1371291198E-17   0.3000000000E-01   0.0000000000E+00  -0.1044586141E-17   0.0000000000E+00   0.0000000000E+00   0.0000000000E+00   0.0000000000E+00   0.0000000000E+00   0.0000000000E+00
   0.1010000000E+01   0.9950166648E+00  -0.2083920058E-18  -0.2000000000E-01   0.9998063529E-02   0.1218655406E-17   0.3000000000E-01  -0.1498139872E-01  -0.1427047412E-17   0.0000000000E+00   0.0000000000E+00   0.0000000000E+00   0.0000000000E+00   0.0000000000E+00   0.0000000000E+00
   0.0000000000E+00   0.9950166648E+00   0.2436093498E-17   0.0000000000E+00   0.9998063529E-02   0.1507589316E-17   0.0000000000E+00  -0.1498139872E-01   0.9285041816E-18   0.0000000000E+00   0.0000000000E+00   0.0000000000E+00   0.0000000000E+00   0.0000000000E+00   0.0000000000E+00
   0.0000000000E+00   0.0000000000E+00   0.9950166648E+00   0.0000000000E+00   0.0000000000E+00   0.9998063529E-02   0.0000000000E+00   0.0000000000E+00  -0.1498139872E-01   0.0000000000E+00   0.0000000000E+00   0.0000000000E+00   0.0000000000E+00   0.0000000000E+00   0.0000000000E+00
   0.1010000000E+01   0.0000000000E+00   0.9950166648E+00  -0.2000000000E-01   0.0000000000E+00   0.9998063529E-02   0.3000000000E-01   0.0000000000E+00  -0.1498139872E-01   0.0000000000E+00   0.0000000000E+00   0.0000000000E+00   0.0000000000E+00   0.0000000000E+00   0.0000000000E+00
   0.1010000000E+01   0.9950166648E+00   0.9950166648E+00  -0.2000000000E-01   0.9998063529E-02   0.9998063529E-02   0.3000000000E-01  -0.1498139872E-01  -0.1498139872E-01   0.0000000000E+00   0.0000000000E+00   0.0000000000E+00   0.0000000000E+00   0.0000000000E+00   0.0000000000E+00
   0.0000000000E+00   0.9950166648E+00   0.9950166648E+00   0.0000000000E+00   0.9998063529E-02   0.9998063529E-02   0.0000000000E+00  -0.1498139872E-01  -0.1498139872E-01   0.0000000000E+00   0.0000000000E+00   0.0000000000E+00   0.0000000000E+00   0.0000000000E+00   0.0000000000E+00
     1     2     3     4     5     6     7     8
 VARIABLES = X,Y,Z,DU1,DU2,DU3,U1,U2,U3,S11,S22,S33,S12,S13,S23
 ZONE, T="0.6000D+01" F=FEPOINT, I=    8 J=    1 ET=BRICK
   0.0000000000E+00   0.0000000000E+00   0.0000000000E+00   0.0000000000E+00   0.0000000000E+00   0.0000000000E+00   0.0000000000E+00   0.0000000000E+00   0.0000000000E+00   0.0000000000E+00   0.0000000000E+00   0.0000000000E+00   0.0000000000E+00   0.0000000000E+00   0.0000000000E+00
   0.9900000000E+00   0.0000000000E+00   0.5441296239E-17  -0.2000000000E-01   0.0000000000E+00   0.5114591181E-17   0.1000000000E-01   0.0000000000E+00   0.3267050577E-18   0.0000000000E+00   0.0000000000E+00   0.0000000000E+00   0.0000000000E+00   0.0000000000E+00   0.0000000000E+00
   0.9900000000E+00   0.1004983335E+01   0.5593197680E-17  -0.2000000000E-01   0.9966670370E-02   0.5801589686E-17   0.1000000000E-01  -0.4983335187E-02  -0.2083920058E-18   0.0000000000E+00   0.0000000000E+00   0.0000000000E+00   0.0000000000E+00   0.0000000000E+00   0.0000000000E+00
   0.0000000000E+00   0.1004983335E+01   0.7016093204E-17   0.0000000000E+00   0.9966670370E-02   0.4579999707E-17   0.0000000000E+00  -0.4983335187E-02   0.2436093498E-17   0.0000000000E+00   0.0000000000E+00   0.0000000000E+00   0.0000000000E+00   0.0000000000E+00   0.0000000000E+00
   0.0000000000E+00   0.0000000000E+00   0.1004983335E+01   0.0000000000E+00   0.0000000000E+00   0.9966670370E-02   0.0000000000E+00   0.0000000000E+00  -0.4983335187E-02   0.0000000000E+00   0.0000000000E+00   0.0000000000E+00   0.0000000000E+00   0.0000000000E+00   0.0000000000E+00
   0.9900000000E+00   0.0000000000E+00   0.1004983335E+01  -0.2000000000E-01   0.0000000000E+00   0.9966670370E-02   0.1000000000E-01   0.0000000000E+00  -0.4983335187E-02   0.0000000000E+00   0.0000000000E+00   0.0000000000E+00   0.0000000000E+00   0.0000000000E+00   0.0000000000E+00
   0.9900000000E+00   0.1004983335E+01   0.1004983335E+01  -0.2000000000E-01   0.9966670370E-02   0.9966670370E-02   0.1000000000E-01  -0.4983335187E-02  -0.4983335187E-02   0.0000000000E+00   0.0000000000E+00   0.0000000000E+00   0.0000000000E+00   0.0000000000E+00   0.0000000000E+00
   0.0000000000E+00   0.1004983335E+01   0.1004983335E+01   0.0000000000E+00   0.9966670370E-02   0.9966670370E-02   0.0000000000E+00  -0.4983335187E-02  -0.4983335187E-02   0.0000000000E+00   0.0000000000E+00   0.0000000000E+00   0.0000000000E+00   0.0000000000E+00   0.0000000000E+00
     1     2     3     4     5     6     7     8
 VARIABLES = X,Y,Z,DU1,DU2,DU3,U1,U2,U3,S11,S22,S33,S12,S13,S23
 ZONE, T="0.7000D+01" F=FEPOINT, I=    8 J=    1 ET=BRICK
   0.0000000000E+00   0.0000000000E+00   0.0000000000E+00   0.0000000000E+00   0.0000000000E+00   0.0000000000E+00   0.0000000000E+00   0.0000000000E+00   0.0000000000E+00   0.0000000000E+00   0.0000000000E+00   0.0000000000E+00   0.0000000000E+00   0.0000000000E+00   0.0000000000E+00
   0.9700000000E+00   0.0000000000E+00   0.1671544815E-16  -0.2000000000E-01   0.0000000000E+00   0.1127415191E-16  -0.1000000000E-01   0.0000000000E+00   0.5441296239E-17   0.0000000000E+00   0.0000000000E+00   0.0000000000E+00   0.0000000000E+00   0.0000000000E+00   0.0000000000E+00
   0.9700000000E+00   0.1014981399E+01   0.4604808126E-17  -0.2000000000E-01   0.9998063533E-02  -0.9883895547E-18  -0.1000000000E-01   0.4983335183E-02   0.5593197680E-17   0.0000000000E+00   0.0000000000E+00   0.0000000000E+00   0.0000000000E+00   0.0000000000E+00   0.0000000000E+00
   0.0000000000E+00   0.1014981399E+01   0.2465707119E-16   0.0000000000E+00   0.9998063533E-02   0.1764097799E-16   0.0000000000E+00   0.4983335183E-02   0.7016093204E-17   0.0000000000E+00   0.0000000000E+00   0.0000000000E+00   0.0000000000E+00   0.0000000000E+00   0.0000000000E+00
   0.0000000000E+00   0.0000000000E+00   0.1014981399E+01   0.0000000000E+00   0.0000000000E+00   0.9998063533E-02   0.0000000000E+00   0.0000000000E+00   0.4983335183E-02   0.0000000000E+00   0.0000000000E+00   0.0000000000E+00   0.0000000000E+00   0.0000000000E+00   0.0000000000E+00
   0.9700000000E+00   0.0000000000E+00   0.1014981399E+01  -0.2000000000E-01   0.0000000000E+00   0.9998063533E-02  -0.1000000000E-01   0.0000000000E+00   0.4983335183E-02   0.0000000000E+00   0.0000000000E+00   0.0000000000E+00   0.0000000000E+00   0.0000000000E+00   0.0000000000E+00
   0.9700000000E+00   0.1014981399E+01   0.1014981399E+01  -0.2000000000E-01   0.9998063533E-02   0.9998063533E-02  -0.1000000000E-01   0.4983335183E-02   0.4983335183E-02   0.0000000000E+00   0.0000000000E+00   0.0000000000E+00   0.0000000000E+00   0.0000000000E+00   0.0000000000E+00
   0.0000000000E+00   0.1014981399E+01   0.1014981399E+01   0.0000000000E+00   0.9998063533E-02   0.9998063533E-02   0.0000000000E+00   0.4983335183E-02   0.4983335183E-02   0.0000000000E+00   0.0000000000E+00   0.0000000000E+00   0.0000000000E+00   0.0000000000E+00   0.0000000000E+00
     1     2     3     4     5     6     7     8
 VARIABLES = X,Y,Z,DU1,DU2,DU3,U1,U2,U3,S11,S22,S33,S12,S13,S23
 ZONE, T="0.8000D+01" F=FEPOINT, I=    8 J=    1 ET=BRICK
   0.0000000000E+00   0.0000000000E+00   0.0000000000E+00   0.0000000000E+00   0.0000000000E+00   0.0000000000E+00   0.0000000000E+00   0.0000000000E+00   0.0000000000E+00   0.0000000000E+00   0.0000000000E+00   0.0000000000E+00   0.0000000000E+00   0.0000000000E+00   0.0000000000E+00
   0.9500000000E+00   0.0000000000E+00  -0.7502961754E-17  -0.2000000000E-01   0.0000000000E+00  -0.2421840990E-16  -0.3000000000E-01   0.0000000000E+00   0.1671544815E-16   0.0000000000E+00   0.0000000000E+00   0.0000000000E+00   0.0000000000E+00   0.0000000000E+00   0.0000000000E+00
   0.9500000000E+00   0.1024980424E+01  -0.7994362085E-17  -0.2000000000E-01   0.9999024813E-02  -0.1259917021E-16  -0.3000000000E-01   0.1498139872E-01   0.4604808126E-17   0.0000000000E+00   0.0000000000E+00   0.0000000000E+00   0.0000000000E+00   0.0000000000E+00   0.0000000000E+00
   0.0000000000E+00   0.1024980424E+01  -0.1088191108E-16   0.0000000000E+00   0.9999024813E-02  -0.3553898227E-16   0.0000000000E+00   0.1498139872E-01   0.2465707119E-16   0.0000000000E+00   0.0000000000E+00   0.0000000000E+00   0.0000000000E+00   0.0000000000E+00   0.0000000000E+00
   0.0000000000E+00   0.0000000000E+00   0.1024980424E+01   0.0000000000E+00   0.0000000000E+00   0.9999024813E-02   0.0000000000E+00   0.0000000000E+00   0.1498139872E-01   0.0000000000E+00   0.0000000000E+00   0.0000000000E+00   0.0000000000E+00   0.0000000000E+00   0.0000000000E+00
   0.9500000000E+00   0.0000000000E+00   0.1024980424E+01  -0.2000000000E-01   0.0000000000E+00   0.9999024813E-02  -0.3000000000E-01   0.0000000000E+00   0.1498139872E-01   0.0000000000E+00   0.0000000000E+00   0.0000000000E+00   0.0000000000E+00   0.0000000000E+00   0.0000000000E+00
   0.9500000000E+00   0.1024980424E+01   0.1024980424E+01  -0.2000000000E-01   0.9999024813E-02   0.9999024813E-02  -0.3000000000E-01   0.1498139872E-01   0.1498139872E-01   0.0000000000E+00   0.0000000000E+00   0.0000000000E+00   0.0000000000E+00   0.0000000000E+00   0.0000000000E+00
   0.0000000000E+00   0.1024980424E+01   0.1024980424E+01   0.0000000000E+00   0.9999024813E-02   0.9999024813E-02   0.0000000000E+00   0.1498139872E-01   0.1498139872E-01   0.0000000000E+00   0.0000000000E+00   0.0000000000E+00   0.0000000000E+00   0.0000000000E+00   0.0000000000E+00
     1     2     3     4     5     6     7     8
 VARIABLES = X,Y,Z,DU1,DU2,DU3,U1,U2,U3,S11,S22,S33,S12,S13,S23
 ZONE, T="0.9000D+01" F=FEPOINT, I=    8 J=    1 ET=BRICK
   0.0000000000E+00   0.0000000000E+00   0.0000000000E+00   0.0000000000E+00   0.0000000000E+00   0.0000000000E+00   0.0000000000E+00   0.0000000000E+00   0.0000000000E+00   0.0000000000E+00   0.0000000000E+00   0.0000000000E+00   0.0000000000E+00   0.0000000000E+00   0.0000000000E+00
   0.9200000000E+00   0.0000000000E+00  -0.6092832256E-17  -0.3000000000E-01   0.0000000000E+00   0.1410129498E-17  -0.5000000000E-01   0.0000000000E+00  -0.7502961754E-17   0.0000000000E+00   0.0000000000E+00   0.0000000000E+00   0.0000000000E+00   0.0000000000E+00   0.0000000000E+00
   0.9200000000E+00   0.1039979481E+01  -0.3354472042E-17  -0.3000000000E-01   0.1499905775E-01   0.4639890043E-17  -0.5000000000E-01   0.2498042353E-01  -0.7994362085E-17   0.0000000000E+00   0.0000000000E+00   0.0000000000E+00   0.0000000000E+00   0.0000000000E+00   0.0000000000E+00
   0.0000000000E+00   0.1039979481E+01  -0.4002595206E-17   0.0000000000E+00   0.1499905775E-01   0.6879315870E-17   0.0000000000E+00   0.2498042353E-01  -0.1088191108E-16   0.0000000000E+00   0.0000000000E+00   0.0000000000E+00   0.0000000000E+00   0.0000000000E+00   0.0000000000E+00
   0.0000000000E+00   0.0000000000E+00   0.1039979481E+01   0.0000000000E+00   0.0000000000E+00   0.1499905775E-01   0.0000000000E+00   0.0000000000E+00   0.2498042353E-01   0.0000000000E+00   0.0000000000E+00   0.0000000000E+00   0.0000000000E+00   0.0000000000E+00   0.0000000000E+00
   0.9200000000E+00   0.0000000000E+00   0.1039979481E+01  -0.3000000000E-01   0.0000000000E+00   0.1499905775E-01  -0.5000000000E-01   0.0000000000E+00   0.2498042353E-01   0.0000000000E+00   0.0000000000E+00   0.0000000000E+00   0.0000000000E+00   0.0000000000E+00   0.0000000000E+00
   0.9200000000E+00   0.1039979481E+01   0.1039979481E+01  -0.3000000000E-01   0.1499905775E-01   0.1499905775E-01  -0.5000000000E-01   0.2498042353E-01   0.2498042353E-01   0.0000000000E+00   0.0000000000E+00   0.0000000000E+00   0.0000000000E+00   0.0000000000E+00   0.0000000000E+00
   0.0000000000E+00   0.1039979481E+01   0.1039979481E+01   0.0000000000E+00   0.1499905775E-01   0.1499905775E-01   0.0000000000E+00   0.2498042353E-01   0.2498042353E-01   0.0000000000E+00   0.0000000000E+00   0.0000000000E+00   0.0000000000E+00   0.0000000000E+00   0.0000000000E+00
     1     2     3     4     5     6     7     8
 VARIABLES = X,Y,Z,DU1,DU2,DU3,U1,U2,U3,S11,S22,S33,S12,S13,S23
 ZONE, T="0.1000D+02" F=FEPOINT, I=    8 J=    1 ET=BRICK
   0.0000000000E+00   0.0000000000E+00   0.0000000000E+00   0.0000000000E+00   0.0000000000E+00   0.0000000000E+00   0.0000000000E+00   0.0000000000E+00   0.0000000000E+00   0.0000000000E+00   0.0000000000E+00   0.0000000000E+00   0.0000000000E+00   0.0000000000E+00   0.0000000000E+00
   0.9000000000E+00   0.0000000000E+00  -0.3794888152E-17  -0.2000000000E-01   0.0000000000E+00   0.2297944104E-17  -0.8000000000E-01   0.0000000000E+00  -0.6092832256E-17   0.0000000000E+00   0.0000000000E+00   0.0000000000E+00   0.0000000000E+00   0.0000000000E+00   0.0000000000E+00
   0.9000000000E+00   0.1049979018E+01  -0.2428149567E-18  -0.2000000000E-01   0.9999536926E-02   0.3111657086E-17  -0.8000000000E-01   0.3997948128E-01  -0.3354472042E-17   0.0000000000E+00   0.0000000000E+00   0.0000000000E+00   0.0000000000E+00   0.0000000000E+00   0.0000000000E+00
   0.0000000000E+00   0.1049979018E+01   0.4590875781E-17   0.0000000000E+00   0.9999536926E-02   0.8593470987E-17   0.0000000000E+00   0.3997948128E-01  -0.4002595206E-17   0.0000000000E+00   0.0000000000E+00   0.0000000000E+00   0.0000000000E+00   0.0000000000E+00   0.0000000000E+00
   0.0000000000E+00   0.0000000000E+00   0.1049979018E+01   0.0000000000E+00   0.0000000000E+00   0.9999536926E-02   0.0000000000E+00   0.0000000000E+00   0.3997948128E-01   0.0000000000E+00   0.0000000000E+00   0.0000000000E+00   0.0000000000E+00   0.0000000000E+00   0.0000000000E+00
   0.9000000000E+00   0.0000000000E+00   0.1049979018E+01  -0.2000000000E-01   0.0000000000E+00   0.9999536926E-02  -0.8000000000E-01   0.0000000000E+00   0.3997948128E-01   0.0000000000E+00   0.0000000000E+00   0.0000000000E+00   0.0000000000E+00   0.0000000000E+00   0.0000000000E+00
   0.9000000000E+00   0.1049979018E+01   0.1049979018E+01  -0.2000000000E-01   0.9999536926E-02   0.9999536926E-02  -0.8000000000E-01   0.3997948128E-01   0.3997948128E-01   0.0000000000E+00   0.0000000000E+00   0.0000000000E+00   0.0000000000E+00   0.0000000000E+00   0.0000000000E+00
   0.0000000000E+00   0.1049979018E+01   0.1049979018E+01   0.0000000000E+00   0.9999536926E-02   0.9999536926E-02   0.0000000000E+00   0.3997948128E-01   0.3997948128E-01   0.0000000000E+00   0.0000000000E+00   0.0000000000E+00   0.0000000000E+00   0.0000000000E+00   0.0000000000E+00
     1     2     3     4     5     6     7     8
