                             n_steps    1
 time   1.0000000000000000     
 lmn,node,x1,x2,x3,u1,u2,u3
    1    1 0.00000D+00 0.00000D+00 0.00000D+00 0.00000D+00 0.00000D+00 0.00000D+00
    1    2 0.10500D+01 0.00000D+00-0.14556D-16 0.50000D-01 0.00000D+00-0.14556D-16
    1    3 0.10500D+01 0.97500D+00-0.10058D-16 0.50000D-01-0.25000D-01-0.10058D-16
    1    4 0.00000D+00 0.97500D+00-0.25470D-17 0.00000D+00-0.25000D-01-0.25470D-17
    1    5 0.00000D+00 0.00000D+00 0.97500D+00 0.00000D+00 0.00000D+00-0.25000D-01
    1    6 0.10500D+01 0.00000D+00 0.97500D+00 0.50000D-01 0.00000D+00-0.25000D-01
    1    7 0.10500D+01 0.97500D+00 0.97500D+00 0.50000D-01-0.25000D-01-0.25000D-01
    1    8 0.00000D+00 0.97500D+00 0.97500D+00 0.00000D+00-0.25000D-01-0.25000D-01
 lmn,kint,x1,x2,x3,s11,s22,s33,s12,s13,s23
    1    1 0.21132D+00 0.21132D+00 0.21132D+00 0.00000D+00 0.00000D+00 0.00000D+00 0.00000D+00 0.00000D+00 0.00000D+00
    1    2 0.78868D+00 0.21132D+00 0.21132D+00 0.00000D+00 0.00000D+00 0.00000D+00 0.00000D+00 0.00000D+00 0.00000D+00
    1    3 0.21132D+00 0.78868D+00 0.21132D+00 0.00000D+00 0.00000D+00 0.00000D+00 0.00000D+00 0.00000D+00 0.00000D+00
    1    4 0.78868D+00 0.78868D+00 0.21132D+00 0.00000D+00 0.00000D+00 0.00000D+00 0.00000D+00 0.00000D+00 0.00000D+00
    1    5 0.21132D+00 0.21132D+00 0.78868D+00 0.00000D+00 0.00000D+00 0.00000D+00 0.00000D+00 0.00000D+00 0.00000D+00
    1    6 0.78868D+00 0.21132D+00 0.78868D+00 0.00000D+00 0.00000D+00 0.00000D+00 0.00000D+00 0.00000D+00 0.00000D+00
    1    7 0.21132D+00 0.78868D+00 0.78868D+00 0.00000D+00 0.00000D+00 0.00000D+00 0.00000D+00 0.00000D+00 0.00000D+00
    1    8 0.78868D+00 0.78868D+00 0.78868D+00 0.00000D+00 0.00000D+00 0.00000D+00 0.00000D+00 0.00000D+00 0.00000D+00
 lmn,node,x1,x2,x3,u1,u2,u3
    2    1 0.10500D+01 0.00000D+00-0.14556D-16 0.50000D-01 0.00000D+00-0.14556D-16
    2    2 0.21000D+01 0.00000D+00-0.23322D-16 0.10000D+00 0.00000D+00-0.23322D-16
    2    3 0.21000D+01 0.97500D+00-0.31693D-16 0.10000D+00-0.25000D-01-0.31693D-16
    2    4 0.10500D+01 0.97500D+00-0.10058D-16 0.50000D-01-0.25000D-01-0.10058D-16
    2    5 0.10500D+01 0.00000D+00 0.97500D+00 0.50000D-01 0.00000D+00-0.25000D-01
    2    6 0.21000D+01 0.00000D+00 0.97500D+00 0.10000D+00 0.00000D+00-0.25000D-01
    2    7 0.21000D+01 0.97500D+00 0.97500D+00 0.10000D+00-0.25000D-01-0.25000D-01
    2    8 0.10500D+01 0.97500D+00 0.97500D+00 0.50000D-01-0.25000D-01-0.25000D-01
 lmn,kint,x1,x2,x3,s11,s22,s33,s12,s13,s23
    2    1 0.12113D+01 0.21132D+00 0.21132D+00 0.00000D+00 0.00000D+00 0.00000D+00 0.00000D+00 0.00000D+00 0.00000D+00
    2    2 0.17887D+01 0.21132D+00 0.21132D+00 0.00000D+00 0.00000D+00 0.00000D+00 0.00000D+00 0.00000D+00 0.00000D+00
    2    3 0.12113D+01 0.78868D+00 0.21132D+00 0.00000D+00 0.00000D+00 0.00000D+00 0.00000D+00 0.00000D+00 0.00000D+00
    2    4 0.17887D+01 0.78868D+00 0.21132D+00 0.00000D+00 0.00000D+00 0.00000D+00 0.00000D+00 0.00000D+00 0.00000D+00
    2    5 0.12113D+01 0.21132D+00 0.78868D+00 0.00000D+00 0.00000D+00 0.00000D+00 0.00000D+00 0.00000D+00 0.00000D+00
    2    6 0.17887D+01 0.21132D+00 0.78868D+00 0.00000D+00 0.00000D+00 0.00000D+00 0.00000D+00 0.00000D+00 0.00000D+00
    2    7 0.12113D+01 0.78868D+00 0.78868D+00 0.00000D+00 0.00000D+00 0.00000D+00 0.00000D+00 0.00000D+00 0.00000D+00
    2    8 0.17887D+01 0.78868D+00 0.78868D+00 0.00000D+00 0.00000D+00 0.00000D+00 0.00000D+00 0.00000D+00 0.00000D+00
                             n_steps    2
 time   2.0000000000000000     
 lmn,node,x1,x2,x3,u1,u2,u3
    1    1 0.00000D+00 0.00000D+00 0.00000D+00 0.00000D+00 0.00000D+00 0.00000D+00
    1    2 0.11000D+01 0.00000D+00-0.34265D-16 0.10000D+00 0.00000D+00-0.34265D-16
    1    3 0.11000D+01 0.95000D+00-0.36417D-16 0.10000D+00-0.50000D-01-0.36417D-16
    1    4 0.00000D+00 0.95000D+00-0.99864D-17 0.00000D+00-0.50000D-01-0.99864D-17
    1    5 0.00000D+00 0.00000D+00 0.95000D+00 0.00000D+00 0.00000D+00-0.50000D-01
    1    6 0.11000D+01 0.00000D+00 0.95000D+00 0.10000D+00 0.00000D+00-0.50000D-01
    1    7 0.11000D+01 0.95000D+00 0.95000D+00 0.10000D+00-0.50000D-01-0.50000D-01
    1    8 0.00000D+00 0.95000D+00 0.95000D+00 0.00000D+00-0.50000D-01-0.50000D-01
 lmn,kint,x1,x2,x3,s11,s22,s33,s12,s13,s23
    1    1 0.21132D+00 0.21132D+00 0.21132D+00 0.10000D+02 0.88818D-15 0.00000D+00 0.95884D-16-0.43486D-15-0.17881D-15
    1    2 0.78868D+00 0.21132D+00 0.21132D+00 0.10000D+02 0.88818D-15 0.00000D+00 0.32718D-15 0.54815D-15 0.27584D-15
    1    3 0.21132D+00 0.78868D+00 0.21132D+00 0.10000D+02 0.88818D-15 0.44409D-15 0.15955D-15-0.45726D-15-0.17881D-15
    1    4 0.78868D+00 0.78868D+00 0.21132D+00 0.10000D+02 0.88818D-15 0.44409D-15 0.27520D-15 0.23663D-15-0.17229D-15
    1    5 0.21132D+00 0.21132D+00 0.78868D+00 0.10000D+02-0.88818D-15-0.44409D-15-0.30304D-15-0.74638D-15 0.42877D-15
    1    6 0.78868D+00 0.21132D+00 0.78868D+00 0.10000D+02-0.88818D-15-0.88818D-15-0.64999D-15 0.35228D-15 0.86203D-15
    1    7 0.21132D+00 0.78868D+00 0.78868D+00 0.10000D+02 0.00000D+00 0.44409D-15-0.28489D-15-0.54442D-15 0.19747D-15
    1    8 0.78868D+00 0.78868D+00 0.78868D+00 0.10000D+02 0.00000D+00 0.44409D-15-0.74748D-15 0.26512D-15 0.74638D-15
 lmn,node,x1,x2,x3,u1,u2,u3
    2    1 0.11000D+01 0.00000D+00-0.34265D-16 0.10000D+00 0.00000D+00-0.34265D-16
    2    2 0.22000D+01 0.00000D+00-0.84895D-16 0.20000D+00 0.00000D+00-0.84895D-16
    2    3 0.22000D+01 0.95000D+00-0.62281D-16 0.20000D+00-0.50000D-01-0.62281D-16
    2    4 0.11000D+01 0.95000D+00-0.36417D-16 0.10000D+00-0.50000D-01-0.36417D-16
    2    5 0.11000D+01 0.00000D+00 0.95000D+00 0.10000D+00 0.00000D+00-0.50000D-01
    2    6 0.22000D+01 0.00000D+00 0.95000D+00 0.20000D+00 0.00000D+00-0.50000D-01
    2    7 0.22000D+01 0.95000D+00 0.95000D+00 0.20000D+00-0.50000D-01-0.50000D-01
    2    8 0.11000D+01 0.95000D+00 0.95000D+00 0.10000D+00-0.50000D-01-0.50000D-01
 lmn,kint,x1,x2,x3,s11,s22,s33,s12,s13,s23
    2    1 0.12113D+01 0.21132D+00 0.21132D+00 0.10000D+02 0.44409D-15-0.44409D-15 0.30860D-15 0.11181D-14 0.20668D-15
    2    2 0.17887D+01 0.21132D+00 0.21132D+00 0.10000D+02 0.44409D-15-0.44409D-15-0.47202D-15 0.30860D-15-0.20741D-15
    2    3 0.12113D+01 0.78868D+00 0.21132D+00 0.10000D+02 0.44409D-15 0.00000D+00-0.33204D-16-0.55362D-15 0.33204D-16
    2    4 0.17887D+01 0.78868D+00 0.21132D+00 0.10000D+02 0.44409D-15-0.44409D-15-0.49580D-15-0.14210D-14 0.68886D-15
    2    5 0.12113D+01 0.21132D+00 0.78868D+00 0.10000D+02 0.13323D-14 0.44409D-15-0.55362D-15 0.14702D-14 0.48795D-15
    2    6 0.17887D+01 0.21132D+00 0.78868D+00 0.10000D+02 0.22204D-14 0.00000D+00 0.19809D-15 0.25592D-15-0.82445D-16
    2    7 0.12113D+01 0.78868D+00 0.78868D+00 0.10000D+02 0.13323D-14 0.88818D-15 0.20594D-15-0.71924D-15 0.71924D-15
    2    8 0.17887D+01 0.78868D+00 0.78868D+00 0.10000D+02 0.22204D-14 0.00000D+00 0.78418D-15-0.12975D-14 0.32232D-15
                             n_steps    3
 time   3.0000000000000000     
 lmn,node,x1,x2,x3,u1,u2,u3
    1    1 0.00000D+00 0.00000D+00 0.00000D+00 0.00000D+00 0.00000D+00 0.00000D+00
    1    2 0.11500D+01 0.00000D+00 0.87585D-17 0.15000D+00 0.00000D+00 0.87585D-17
    1    3 0.11500D+01 0.92500D+00 0.45031D-17 0.15000D+00-0.75000D-01 0.45031D-17
    1    4 0.00000D+00 0.92500D+00 0.96256D-17 0.00000D+00-0.75000D-01 0.96256D-17
    1    5 0.00000D+00 0.00000D+00 0.92500D+00 0.00000D+00 0.00000D+00-0.75000D-01
    1    6 0.11500D+01 0.00000D+00 0.92500D+00 0.15000D+00 0.00000D+00-0.75000D-01
    1    7 0.11500D+01 0.92500D+00 0.92500D+00 0.15000D+00-0.75000D-01-0.75000D-01
    1    8 0.00000D+00 0.92500D+00 0.92500D+00 0.00000D+00-0.75000D-01-0.75000D-01
 lmn,kint,x1,x2,x3,s11,s22,s33,s12,s13,s23
    1    1 0.21132D+00 0.21132D+00 0.21132D+00 0.15000D+02-0.88818D-15 0.26645D-14 0.30593D-15-0.76379D-15-0.61516D-15
    1    2 0.78868D+00 0.21132D+00 0.21132D+00 0.15000D+02 0.88818D-15 0.17764D-14 0.10721D-14 0.21274D-14-0.26259D-15
    1    3 0.21132D+00 0.78868D+00 0.21132D+00 0.15000D+02-0.88818D-15 0.88818D-15 0.51879D-15-0.11196D-14 0.39676D-15
    1    4 0.78868D+00 0.78868D+00 0.21132D+00 0.15000D+02 0.00000D+00 0.00000D+00 0.12994D-14-0.10764D-15 0.47467D-15
    1    5 0.21132D+00 0.21132D+00 0.78868D+00 0.15000D+02-0.88818D-15 0.00000D+00-0.43530D-15-0.83045D-15-0.10875D-14
    1    6 0.78868D+00 0.21132D+00 0.78868D+00 0.15000D+02 0.00000D+00-0.88818D-15-0.16496D-14 0.21764D-14-0.64407D-15
    1    7 0.21132D+00 0.78868D+00 0.78868D+00 0.15000D+02 0.00000D+00-0.88818D-15-0.44006D-15-0.12255D-14-0.10447D-15
    1    8 0.78868D+00 0.78868D+00 0.78868D+00 0.15000D+02 0.00000D+00-0.88818D-15-0.15965D-14-0.11181D-16-0.49951D-15
 lmn,node,x1,x2,x3,u1,u2,u3
    2    1 0.11500D+01 0.00000D+00 0.87585D-17 0.15000D+00 0.00000D+00 0.87585D-17
    2    2 0.23000D+01 0.00000D+00 0.80277D-17 0.30000D+00 0.00000D+00 0.80277D-17
    2    3 0.23000D+01 0.92500D+00 0.82104D-17 0.30000D+00-0.75000D-01 0.82104D-17
    2    4 0.11500D+01 0.92500D+00 0.45031D-17 0.15000D+00-0.75000D-01 0.45031D-17
    2    5 0.11500D+01 0.00000D+00 0.92500D+00 0.15000D+00 0.00000D+00-0.75000D-01
    2    6 0.23000D+01 0.00000D+00 0.92500D+00 0.30000D+00 0.00000D+00-0.75000D-01
    2    7 0.23000D+01 0.92500D+00 0.92500D+00 0.30000D+00-0.75000D-01-0.75000D-01
    2    8 0.11500D+01 0.92500D+00 0.92500D+00 0.15000D+00-0.75000D-01-0.75000D-01
 lmn,kint,x1,x2,x3,s11,s22,s33,s12,s13,s23
    2    1 0.12113D+01 0.21132D+00 0.21132D+00 0.15000D+02-0.17764D-14-0.17764D-14 0.11206D-14 0.14707D-14 0.23292D-15
    2    2 0.17887D+01 0.21132D+00 0.21132D+00 0.15000D+02-0.17764D-14-0.88818D-15-0.18040D-15-0.22063D-15 0.97958D-15
    2    3 0.12113D+01 0.78868D+00 0.21132D+00 0.15000D+02 0.00000D+00-0.88818D-15 0.21282D-14 0.17185D-15 0.14618D-15
    2    4 0.17887D+01 0.78868D+00 0.21132D+00 0.15000D+02 0.00000D+00 0.00000D+00 0.27786D-15-0.66660D-15-0.32346D-16
    2    5 0.12113D+01 0.21132D+00 0.78868D+00 0.15000D+02 0.88818D-15 0.00000D+00-0.14280D-14 0.21090D-14-0.14258D-16
    2    6 0.17887D+01 0.21132D+00 0.78868D+00 0.15000D+02-0.88818D-15 0.17764D-14-0.47386D-15-0.49313D-15 0.12738D-14
    2    7 0.12113D+01 0.78868D+00 0.78868D+00 0.15000D+02 0.00000D+00 0.00000D+00-0.22763D-14 0.99727D-15-0.72083D-16
    2    8 0.17887D+01 0.78868D+00 0.78868D+00 0.15000D+02-0.88818D-15 0.88818D-15-0.11777D-14-0.21704D-15 0.59448D-16
